9848.0
1 1 1 1 1 1 1 1 1 1 1 1 1 1 1 1 1 1 1 1 
0 1 2 3 4 5 6 38 39 
7 8 9 10 
15 16 18 20 40 
17 19 41 
21 22 23 24 25 26 27 28 
29 30 31 32 33 34 35 36 37 
11 12 13 14 
47 68 79 
50 66 76 
59 61 
58 69 78 
42 52 
43 60 67 71 
51 64 65 72 
56 74 
48 57 62 
45 49 53 77 
63 73 75 
44 54 70 
46 55 
